c is-unsat
p cnf 10 70
-7 5 -4 0
2 6 7 0
6 -3 -7 0
-7 5 -10 0
-9 -7 -10 0
8 -5 -7 0
4 -1 5 0
2 -8 1 0
10 1 -2 0
-1 9 -6 0
6 -2 -4 0
-8 -9 -7 0
-7 -2 -8 0
-2 -4 8 0
-9 10 -7 0
-2 -3 -9 0
6 3 -2 0
-5 -6 -8 0
-2 -10 8 0
9 -7 -3 0
-2 -6 -4 0
3 -9 7 0
-2 5 8 0
6 4 -2 0
10 -8 -4 0
6 -3 -7 0
-2 -9 -7 0
-5 -8 -10 0
6 -1 -5 0
-10 4 -2 0
-2 -5 10 0
-5 -10 -6 0
1 -8 -9 0
-5 -2 -10 0
-9 -8 -6 0
-8 -9 1 0
-6 4 -2 0
-1 -8 7 0
-2 1 -6 0
7 5 -3 0
-4 -6 5 0
-1 -10 -3 0
-9 10 -3 0
-1 7 3 0
-2 10 -7 0
-10 -8 -3 0
-10 4 -7 0
5 -9 4 0
-7 -3 -4 0
-5 10 -9 0
-5 6 2 0
-7 -4 10 0
2 -5 7 0
7 -2 9 0
5 3 -2 0
6 5 -8 0
-6 1 7 0
8 7 -3 0
-5 -3 -10 0
9 3 8 0
-9 -7 6 0
-8 -10 5 0
-3 7 9 0
-2 -3 -8 0
-5 -10 1 0
-4 -7 -5 0
-4 -7 -2 0
2 4 -10 0
2 -4 -10 0
-10 -5 -7 0
